65	65	65	65	65	103	103	65	103	65	65	65	65	65	65	65	
65	65	65	65	65	103	65	103	103	65	65	65	65	65	65	65	
65	65	65	65	65	102	103	65	65	65	65	65	65	65	65	65	
65	65	65	18	18	18	18	65	65	65	65	65	65	65	65	65	
65	65	18	18	139	18	21	21	65	65	65	65	65	65	65	65	
65	18	18	131	139	18	18	18	65	65	65	65	65	65	65	65	
14	21	18	18	18	18	105	65	65	65	65	65	65	65	65	65	
65	21	18	18	18	18	18	65	65	65	65	65	65	65	65	65	
65	65	65	65	65	18	18	18	65	65	65	65	65	65	65	65	
65	65	21	21	108	18	18	18	18	18	65	65	65	65	65	65	
65	21	65	65	65	18	18	18	18	18	18	18	65	65	21	21	
65	103	65	21	108	21	18	18	18	18	18	18	18	18	18	21	
65	65	21	65	65	65	18	18	18	18	18	18	18	18	18	65	
65	21	65	65	65	65	65	18	18	18	18	18	18	18	65	65	
65	103	65	65	65	65	65	65	65	65	21	65	21	18	65	65	
65	65	65	65	65	65	65	65	65	65	21	65	21	18	65	65	
65	65	65	65	65	65	65	65	65	65	65	21	65	21	18	65	
65	65	65	65	65	65	65	65	65	65	65	21	102	65	21	103	
